cvc5/12418.corecstrs.readable_medium.smt2
(set-info :smt-lib-version 2.6)
(set-logic QF_SLIA)
(set-info :source |
Generated by: Andrew Reynolds
Generated on: 2018-04-25
Generator: Kudzu, converted to v2.6 by CVC4
Application: Symbolic Execution of Javascript
Target solver: Kaluza
Publications: "A symbolic execution framework for JavaScript" by P. Saxena, D. Akhawe, S. Hanna, F. Mao, S. McCamant, and D. Song, 2010.
|)
(set-info :license "https://creativecommons.org/licenses/by/4.0/")
(set-info :category "industrial")
(set-info :status unknown)



(declare-fun T_1 () Bool)
(declare-fun T_2 () Bool)
(declare-fun var_0xINPUT_158702 () String)
(declare-const rest_0_3292 String)
(declare-const rest_1_1491 String)
(declare-const rest_3_1191 String)
(declare-const rest_4_2254 String)
(assert (= T_1 (= var_0xINPUT_158702 "")))
(assert (= T_2 (not T_1)))
(assert T_2)
(assert (= (str.split_rest var_0xINPUT_158702 "-" 0) rest_0_3292))
(assert (= (str.split_rest var_0xINPUT_158702 "-" 2) rest_1_1491))
(assert (= (str.split_rest var_0xINPUT_158702 "-" 2) "e9bbr44i"))
(assert (= (str.split_rest var_0xINPUT_158702 "-" 0) rest_3_1191))
(assert (= (str.split_rest var_0xINPUT_158702 "-" 2) rest_4_2254))
(check-sat)

(get-model)
